27
1 0 9
2 0 20
2 1 1
3 0 20
3 1 11
3 2 6
4 0 6
4 1 3
4 2 7
4 3 11
5 0 4
5 1 21
5 2 22
5 3 20
5 4 21
6 0 2
6 1 11
6 2 3
6 3 14
6 4 10
6 5 13
7 0 17
7 1 4
7 2 18
7 3 2
7 4 20
7 5 8
7 6 11
8 0 20
8 1 1
8 2 22
8 3 8
8 4 22
8 5 4
8 6 19
8 7 17
9 0 18
9 1 8
9 2 3
9 3 15
9 4 3
9 5 19
9 6 18
9 7 13
9 8 2
10 0 22
10 1 4
10 2 7
10 3 7
10 4 18
10 5 14
10 6 21
10 7 22
10 8 17
10 9 18
11 0 16
11 1 2
11 2 14
11 3 17
11 4 7
11 5 22
11 6 21
11 7 8
11 8 4
11 9 6
11 10 1
12 0 10
12 1 18
12 2 15
12 3 2
12 4 11
12 5 12
12 6 2
12 7 6
12 8 13
12 9 19
12 10 5
12 11 2
13 0 20
13 1 18
13 2 14
13 3 3
13 4 6
13 5 8
13 6 14
13 7 9
13 8 7
13 9 2
13 10 11
13 11 3
13 12 13
14 0 2
14 1 1
14 2 5
14 3 16
14 4 18
14 5 11
14 6 2
14 7 21
14 8 2
14 9 5
14 10 18
14 11 12
14 12 19
14 13 3
15 0 3
15 1 18
15 2 22
15 3 1
15 4 21
15 5 22
15 6 13
15 7 1
15 8 22
15 9 14
15 10 3
15 11 12
15 12 9
15 13 1
15 14 5
16 0 17
16 1 12
16 2 10
16 3 21
16 4 2
16 5 15
16 6 17
16 7 3
16 8 15
16 9 20
16 10 18
16 11 1
16 12 4
16 13 14
16 14 12
16 15 1
17 0 13
17 1 15
17 2 1
17 3 14
17 4 15
17 5 6
17 6 21
17 7 13
17 8 5
17 9 19
17 10 1
17 11 8
17 12 18
17 13 20
17 14 7
17 15 18
17 16 6
18 0 9
18 1 8
18 2 16
18 3 6
18 4 17
18 5 17
18 6 7
18 7 10
18 8 4
18 9 16
18 10 1
18 11 13
18 12 12
18 13 22
18 14 9
18 15 3
18 16 5
18 17 4
19 0 11
19 1 2
19 2 6
19 3 21
19 4 6
19 5 1
19 6 3
19 7 3
19 8 7
19 9 6
19 10 19
19 11 17
19 12 18
19 13 9
19 14 4
19 15 12
19 16 15
19 17 1
19 18 6
20 0 16
20 1 7
20 2 5
20 3 11
20 4 17
20 5 18
20 6 1
20 7 8
20 8 13
20 9 13
20 10 1
20 11 17
20 12 7
20 13 20
20 14 21
20 15 2
20 16 17
20 17 3
20 18 14
20 19 20
21 0 20
21 1 21
21 2 21
21 3 14
21 4 3
21 5 17
21 6 11
21 7 19
21 8 15
21 9 19
21 10 1
21 11 16
21 12 9
21 13 6
21 14 3
21 15 18
21 16 7
21 17 5
21 18 13
21 19 22
21 20 5
22 0 4
22 1 22
22 2 12
22 3 2
22 4 6
22 5 14
22 6 13
22 7 1
22 8 5
22 9 9
22 10 8
22 11 13
22 12 10
22 13 17
22 14 13
22 15 10
22 16 12
22 17 20
22 18 8
22 19 15
22 20 15
22 21 4
23 0 21
23 1 4
23 2 5
23 3 2
23 4 21
23 5 3
23 6 12
23 7 17
23 8 22
23 9 22
23 10 6
23 11 8
23 12 13
23 13 9
23 14 15
23 15 9
23 16 10
23 17 2
23 18 15
23 19 22
23 20 8
23 21 21
23 22 20
24 0 15
24 1 11
24 2 21
24 3 10
24 4 2
24 5 4
24 6 21
24 7 10
24 8 16
24 9 16
24 10 8
24 11 11
24 12 18
24 13 2
24 14 8
24 15 3
24 16 19
24 17 6
24 18 10
24 19 19
24 20 19
24 21 6
24 22 12
24 23 8
25 0 5
25 1 6
25 2 2
25 3 4
25 4 11
25 5 19
25 6 2
25 7 13
25 8 19
25 9 3
25 10 8
25 11 8
25 12 12
25 13 19
25 14 6
25 15 21
25 16 6
25 17 1
25 18 21
25 19 8
25 20 19
25 21 10
25 22 14
25 23 18
25 24 12
26 0 8
26 1 5
26 2 12
26 3 21
26 4 15
26 5 7
26 6 6
26 7 22
26 8 13
26 9 21
26 10 14
26 11 5
26 12 14
26 13 14
26 14 13
26 15 9
26 16 18
26 17 11
26 18 16
26 19 19
26 20 11
26 21 20
26 22 22
26 23 15
26 24 21
26 25 19
